
Gurobi 12.0.3 (linux64) logging started Thu Aug 21 02:40:47 2025

Set parameter LogFile to value "logs/instance-02.txt"
Gurobi Optimizer version 12.0.3 build v12.0.3rc0 (linux64 - "Ubuntu 24.04.3 LTS")

CPU model: Intel(R) Core(TM) i5-8250U CPU @ 1.60GHz, instruction set [SSE2|AVX|AVX2]
Thread count: 4 physical cores, 8 logical processors, using up to 8 threads

Non-default parameters:
TimeLimit  900

Optimize a model with 925 rows, 325 columns and 2225 nonzeros
Model fingerprint: 0x2aec2844
Variable types: 0 continuous, 325 integer (325 binary)
Coefficient statistics:
  Matrix range     [1e+00, 1e+00]
  Objective range  [1e+00, 1e+01]
  Bounds range     [1e+00, 1e+00]
  RHS range        [1e+00, 1e+00]
Found heuristic solution: objective -75.0000000
Found heuristic solution: objective -15.0000000
Presolve removed 483 rows and 18 columns
Presolve time: 0.01s
Presolved: 442 rows, 307 columns, 1106 nonzeros
Variable types: 0 continuous, 307 integer (307 binary)

Root relaxation: objective 3.735000e+02, 207 iterations, 0.00 seconds (0.00 work units)

    Nodes    |    Current Node    |     Objective Bounds      |     Work
 Expl Unexpl |  Obj  Depth IntInf | Incumbent    BestBd   Gap | It/Node Time

     0     0  373.50000    0  160  -15.00000  373.50000  2590%     -    0s
H    0     0                      99.0000000  373.50000   277%     -    0s
H    0     0                     143.0000000  373.50000   161%     -    0s
H    0     0                     149.0000000  373.50000   151%     -    0s
H    0     0                     153.0000000  373.50000   144%     -    0s
H    0     0                     166.0000000  373.50000   125%     -    0s
H    0     0                     175.0000000  373.50000   113%     -    0s
H    0     0                     188.0000000  223.75000  19.0%     -    0s
     0     0  223.75000    0  214  188.00000  223.75000  19.0%     -    0s
H    0     0                     195.0000000  202.50000  3.85%     -    0s
H    0     0                     200.0000000  202.50000  1.25%     -    0s
     0     0  200.00000    0  219  200.00000  200.00000  0.00%     -    0s

Cutting planes:
  Gomory: 12
  Dual implied bound: 3
  Zero half: 22
  RLT: 200
  BQP: 173

Explored 1 nodes (1035 simplex iterations) in 0.27 seconds (0.11 work units)
Thread count was 8 (of 8 available processors)

Solution count 10: 200 195 188 ... -15

Optimal solution found (tolerance 1.00e-04)
Best objective 2.000000000000e+02, best bound 2.000000000000e+02, gap 0.0000%

Gurobi 12.0.3 (linux64) logging started Thu Aug 21 10:33:25 2025

Set parameter LogFile to value "logs/instance-02.txt"
Gurobi Optimizer version 12.0.3 build v12.0.3rc0 (linux64 - "Ubuntu 24.04.3 LTS")

CPU model: Intel(R) Core(TM) i5-8250U CPU @ 1.60GHz, instruction set [SSE2|AVX|AVX2]
Thread count: 4 physical cores, 8 logical processors, using up to 8 threads

Non-default parameters:
TimeLimit  600

Optimize a model with 925 rows, 325 columns and 2225 nonzeros
Model fingerprint: 0x2aec2844
Variable types: 0 continuous, 325 integer (325 binary)
Coefficient statistics:
  Matrix range     [1e+00, 1e+00]
  Objective range  [1e+00, 1e+01]
  Bounds range     [1e+00, 1e+00]
  RHS range        [1e+00, 1e+00]
Found heuristic solution: objective -75.0000000
Found heuristic solution: objective -15.0000000
Presolve removed 483 rows and 18 columns
Presolve time: 0.01s
Presolved: 442 rows, 307 columns, 1106 nonzeros
Variable types: 0 continuous, 307 integer (307 binary)

Root relaxation: objective 3.735000e+02, 207 iterations, 0.00 seconds (0.00 work units)

    Nodes    |    Current Node    |     Objective Bounds      |     Work
 Expl Unexpl |  Obj  Depth IntInf | Incumbent    BestBd   Gap | It/Node Time

     0     0  373.50000    0  160  -15.00000  373.50000  2590%     -    0s
H    0     0                      99.0000000  373.50000   277%     -    0s
H    0     0                     143.0000000  373.50000   161%     -    0s
H    0     0                     149.0000000  373.50000   151%     -    0s
H    0     0                     153.0000000  373.50000   144%     -    0s
H    0     0                     166.0000000  373.50000   125%     -    0s
H    0     0                     175.0000000  373.50000   113%     -    0s
H    0     0                     188.0000000  223.75000  19.0%     -    0s
     0     0  223.75000    0  214  188.00000  223.75000  19.0%     -    0s
H    0     0                     195.0000000  202.50000  3.85%     -    0s
H    0     0                     200.0000000  202.50000  1.25%     -    0s
     0     0  200.00000    0  219  200.00000  200.00000  0.00%     -    0s

Cutting planes:
  Gomory: 12
  Dual implied bound: 3
  Zero half: 22
  RLT: 200
  BQP: 173

Explored 1 nodes (1035 simplex iterations) in 0.25 seconds (0.11 work units)
Thread count was 8 (of 8 available processors)

Solution count 10: 200 195 188 ... -15

Optimal solution found (tolerance 1.00e-04)
Best objective 2.000000000000e+02, best bound 2.000000000000e+02, gap 0.0000%
